NAME : R103.12087.tour
COMMENT : Cost = 0_12087
COMMENT : Found by LKH [Keld Helsgaun] Wed Sep 13 18:38:53 2017
TYPE : TOUR
DIMENSION : 114
TOUR_SECTION
1
41
54
103
93
99
15
45
39
87
17
92
101
38
105
22
40
24
68
56
26
55
108
37
65
50
20
48
49
83
19
104
52
66
72
10
67
21
33
71
106
2
31
79
35
36
82
78
29
107
3
23
75
73
74
59
114
43
44
16
58
42
76
57
5
27
111
53
8
63
12
64
91
11
32
109
95
96
98
88
14
113
84
46
85
62
86
94
60
102
97
100
7
110
28
70
89
9
47
18
6
61
90
112
51
34
4
77
80
30
25
69
81
13
-1
EOF
